/*********************************************
 * OPL 12.6.0.0 Data
 * Author: Adrian Rodriguez Bazaga, Pau Rodriguez Esmerats
 * Creation Date: 30/11/2017 at 19:59:16
 *********************************************/

nNurses=1043;
maxConsec=2;
maxPresence=7;
maxHours=5;
minHours=1;
demand= [246 258 349 359 258 349 359 273 249 136 25 27 32 42 43 27 31 19 18 15 213 372 170 314  ];
